Instance: E256-14k.dat
Class:  3
  255 --- number of customers (no depot)
   51 --- number of vehicles
  511 --- number of items
Capacity - height - width of vehicles
  1000     40     20
Node - x - y - demand
    0     0.0   -15.0     0.0 
    1    -1.0   -14.0   300.0
    2     1.0   -14.0   300.0
    3    -2.0   -13.0   180.0
    4     0.0   -13.0   300.0
    5     2.0   -13.0   180.0
    6    -3.0   -12.0   128.0
    7    -1.0   -12.0   180.0
    8     1.0   -12.0   180.0
    9     3.0   -12.0   128.0
   10    -4.0   -11.0   100.0
   11    -2.0   -11.0   128.0
   12     0.0   -11.0   180.0
   13     2.0   -11.0   128.0
   14     4.0   -11.0   100.0
   15    -5.0   -10.0    81.0
   16    -3.0   -10.0   100.0
   17    -1.0   -10.0   128.0
   18     1.0   -10.0   128.0
   19     3.0   -10.0   100.0
   20     5.0   -10.0    81.0
   21    -6.0    -9.0    69.0
   22    -4.0    -9.0    81.0
   23    -2.0    -9.0   100.0
   24     0.0    -9.0   128.0
   25     2.0    -9.0   100.0
   26     4.0    -9.0    81.0
   27     6.0    -9.0    69.0
   28    -7.0    -8.0    60.0
   29    -5.0    -8.0    69.0
   30    -3.0    -8.0    81.0
   31    -1.0    -8.0   100.0
   32     1.0    -8.0   100.0
   33     3.0    -8.0    81.0
   34     5.0    -8.0    69.0
   35     7.0    -8.0    60.0
   36    -8.0    -7.0    52.0
   37    -6.0    -7.0    60.0
   38    -4.0    -7.0    69.0
   39    -2.0    -7.0    81.0
   40     0.0    -7.0   100.0
   41     2.0    -7.0    81.0
   42     4.0    -7.0    69.0
   43     6.0    -7.0    60.0
   44     8.0    -7.0    52.0
   45    -9.0    -6.0    47.0
   46    -7.0    -6.0    52.0
   47    -5.0    -6.0    60.0
   48    -3.0    -6.0    69.0
   49    -1.0    -6.0    81.0
   50     1.0    -6.0    81.0
   51     3.0    -6.0    69.0
   52     5.0    -6.0    60.0
   53     7.0    -6.0    52.0
   54     9.0    -6.0    47.0
   55   -10.0    -5.0    42.0
   56    -8.0    -5.0    47.0
   57    -6.0    -5.0    52.0
   58    -4.0    -5.0    60.0
   59    -2.0    -5.0    69.0
   60     0.0    -5.0    81.0
   61     2.0    -5.0    69.0
   62     4.0    -5.0    60.0
   63     6.0    -5.0    52.0
   64     8.0    -5.0    47.0
   65    10.0    -5.0    42.0
   66   -11.0    -4.0    39.0
   67    -9.0    -4.0    42.0
   68    -7.0    -4.0    47.0
   69    -5.0    -4.0    52.0
   70    -3.0    -4.0    60.0
   71    -1.0    -4.0    69.0
   72     1.0    -4.0    69.0
   73     3.0    -4.0    60.0
   74     5.0    -4.0    52.0
   75     7.0    -4.0    47.0
   76     9.0    -4.0    42.0
   77    11.0    -4.0    39.0
   78   -12.0    -3.0    36.0
   79   -10.0    -3.0    39.0
   80    -8.0    -3.0    42.0
   81    -6.0    -3.0    47.0
   82    -4.0    -3.0    52.0
   83    -2.0    -3.0    60.0
   84     0.0    -3.0    69.0
   85     2.0    -3.0    60.0
   86     4.0    -3.0    52.0
   87     6.0    -3.0    47.0
   88     8.0    -3.0    42.0
   89    10.0    -3.0    39.0
   90    12.0    -3.0    36.0
   91   -13.0    -2.0    33.0
   92   -11.0    -2.0    36.0
   93    -9.0    -2.0    39.0
   94    -7.0    -2.0    42.0
   95    -5.0    -2.0    47.0
   96    -3.0    -2.0    52.0
   97    -1.0    -2.0    60.0
   98     1.0    -2.0    60.0
   99     3.0    -2.0    52.0
  100     5.0    -2.0    47.0
  101     7.0    -2.0    42.0
  102     9.0    -2.0    39.0
  103    11.0    -2.0    36.0
  104    13.0    -2.0    33.0
  105   -14.0    -1.0    31.0
  106   -12.0    -1.0    33.0
  107   -10.0    -1.0    36.0
  108    -8.0    -1.0    39.0
  109    -6.0    -1.0    42.0
  110    -4.0    -1.0    47.0
  111    -2.0    -1.0    52.0
  112     0.0    -1.0    60.0
  113     2.0    -1.0    52.0
  114     4.0    -1.0    47.0
  115     6.0    -1.0    42.0
  116     8.0    -1.0    39.0
  117    10.0    -1.0    36.0
  118    12.0    -1.0    33.0
  119    14.0    -1.0    31.0
  120   -15.0     0.0    29.0
  121   -13.0     0.0    31.0
  122   -11.0     0.0    33.0
  123    -9.0     0.0    36.0
  124    -7.0     0.0    39.0
  125    -5.0     0.0    42.0
  126    -3.0     0.0    47.0
  127    -1.0     0.0    52.0
  128     1.0     0.0    52.0
  129     3.0     0.0    47.0
  130     5.0     0.0    42.0
  131     7.0     0.0    39.0
  132     9.0     0.0    36.0
  133    11.0     0.0    33.0
  134    13.0     0.0    31.0
  135    15.0     0.0    29.0
  136   -14.0     1.0    29.0
  137   -12.0     1.0    31.0
  138   -10.0     1.0    33.0
  139    -8.0     1.0    36.0
  140    -6.0     1.0    39.0
  141    -4.0     1.0    42.0
  142    -2.0     1.0    47.0
  143     0.0     1.0    52.0
  144     2.0     1.0    47.0
  145     4.0     1.0    42.0
  146     6.0     1.0    39.0
  147     8.0     1.0    36.0
  148    10.0     1.0    33.0
  149    12.0     1.0    31.0
  150    14.0     1.0    29.0
  151   -13.0     2.0    29.0
  152   -11.0     2.0    31.0
  153    -9.0     2.0    33.0
  154    -7.0     2.0    36.0
  155    -5.0     2.0    39.0
  156    -3.0     2.0    42.0
  157    -1.0     2.0    47.0
  158     1.0     2.0    47.0
  159     3.0     2.0    42.0
  160     5.0     2.0    39.0
  161     7.0     2.0    36.0
  162     9.0     2.0    33.0
  163    11.0     2.0    31.0
  164    13.0     2.0    29.0
  165   -12.0     3.0    29.0
  166   -10.0     3.0    31.0
  167    -8.0     3.0    33.0
  168    -6.0     3.0    36.0
  169    -4.0     3.0    39.0
  170    -2.0     3.0    42.0
  171     0.0     3.0    47.0
  172     2.0     3.0    42.0
  173     4.0     3.0    39.0
  174     6.0     3.0    36.0
  175     8.0     3.0    33.0
  176    10.0     3.0    31.0
  177    12.0     3.0    29.0
  178   -11.0     4.0    29.0
  179    -9.0     4.0    31.0
  180    -7.0     4.0    33.0
  181    -5.0     4.0    36.0
  182    -3.0     4.0    39.0
  183    -1.0     4.0    42.0
  184     1.0     4.0    42.0
  185     3.0     4.0    39.0
  186     5.0     4.0    36.0
  187     7.0     4.0    33.0
  188     9.0     4.0    31.0
  189    11.0     4.0    29.0
  190   -10.0     5.0    29.0
  191    -8.0     5.0    31.0
  192    -6.0     5.0    33.0
  193    -4.0     5.0    36.0
  194    -2.0     5.0    39.0
  195     0.0     5.0    42.0
  196     2.0     5.0    39.0
  197     4.0     5.0    36.0
  198     6.0     5.0    33.0
  199     8.0     5.0    31.0
  200    10.0     5.0    29.0
  201    -9.0     6.0    29.0
  202    -7.0     6.0    31.0
  203    -5.0     6.0    33.0
  204    -3.0     6.0    36.0
  205    -1.0     6.0    39.0
  206     1.0     6.0    39.0
  207     3.0     6.0    36.0
  208     5.0     6.0    33.0
  209     7.0     6.0    31.0
  210     9.0     6.0    29.0
  211    -8.0     7.0    29.0
  212    -6.0     7.0    31.0
  213    -4.0     7.0    33.0
  214    -2.0     7.0    36.0
  215     0.0     7.0    39.0
  216     2.0     7.0    36.0
  217     4.0     7.0    33.0
  218     6.0     7.0    31.0
  219     8.0     7.0    29.0
  220    -7.0     8.0    29.0
  221    -5.0     8.0    31.0
  222    -3.0     8.0    33.0
  223    -1.0     8.0    36.0
  224     1.0     8.0    36.0
  225     3.0     8.0    33.0
  226     5.0     8.0    31.0
  227     7.0     8.0    29.0
  228    -6.0     9.0    29.0
  229    -4.0     9.0    31.0
  230    -2.0     9.0    33.0
  231     0.0     9.0    36.0
  232     2.0     9.0    33.0
  233     4.0     9.0    31.0
  234     6.0     9.0    29.0
  235    -5.0    10.0    29.0
  236    -3.0    10.0    31.0
  237    -1.0    10.0    33.0
  238     1.0    10.0    33.0
  239     3.0    10.0    31.0
  240     5.0    10.0    29.0
  241    -4.0    11.0    29.0
  242    -2.0    11.0    31.0
  243     0.0    11.0    33.0
  244     2.0    11.0    31.0
  245     4.0    11.0    29.0
  246    -3.0    12.0    29.0
  247    -1.0    12.0    31.0
  248     1.0    12.0    31.0
  249     3.0    12.0    29.0
  250    -2.0    13.0    29.0
  251     0.0    13.0    31.0
  252     2.0    13.0    29.0
  253    -1.0    14.0    29.0
  254     1.0    14.0    29.0
  255     0.0    15.0    29.0
Node - number of items - h - w for each item
    0   0
    1   3    8   14   10    7   21    3
    2   2    5   12   30    4
    3   3    8    4   24    3   16    3
    4   3    6    8   11    5   25    4
    5   3   13    4   24    2   24    2
    6   1   26    3
    7   2    7   15   12    3
    8   2    7   14    7   13
    9   3   10    8   11    7   20    2
   10   2   13    5   16    3
   11   2    6   14   15    5
   12   3    7   13    8   11   14    4
   13   1   15    3
   14   2    5   16   12    5
   15   3    8   15    4    8   13    5
   16   1    5    8
   17   3    9    7   14    5   13    2
   18   1   14    3
   19   2    6    9   17    4
   20   3    5   15    7   14   24    3
   21   2    7   15   28    4
   22   2   11    8    7    8
   23   2    6    8    8    7
   24   3   10    7    9    5   31    2
   25   1   11    8
   26   1   15    5
   27   2    8   14   31    4
   28   2   14    7   10    6
   29   2   15    3   29    2
   30   1   11    8
   31   1   27    3
   32   1    8    7
   33   2    5    6   14    3
   34   3    6   16    5   16   15    7
   35   3   10    6    4    6   23    3
   36   2   26    4   15    3
   37   1    7   16
   38   3    6   14   14    7   20    3
   39   2   29    4   13    3
   40   2   11    4   20    3
   41   1    7    7
   42   1    8    6
   43   1   23    2
   44   3    9    6   13    3   28    2
   45   1   14    2
   46   2   26    2   25    2
   47   1   11    5
   48   3    4    9   12    4   19    3
   49   1    4   10
   50   3   14    7   21    4   29    3
   51   2   28    2   24    2
   52   2   10    7   16    6
   53   3    9    7   16    4   14    4
   54   2    7   13    7   11
   55   2    7   12   30    3
   56   2   12    7   28    3
   57   3    4   15    7   14   11    6
   58   3   12    5   11    5   25    2
   59   1    4   14
   60   1   21    2
   61   3    7   12    5    8   12    5
   62   2    7   12    9    6
   63   3   10    7    8    6   22    2
   64   2    6   15   10    7
   65   1   13    4
   66   1   32    3
   67   3    5   16    6    8   24    3
   68   1   11    7
   69   1   21    2
   70   2    4   12   19    4
   71   3    7   12   12    5   24    4
   72   3   12    7   10    5   25    2
   73   3    7   15    6   12   26    3
   74   3   21    4   28    3   12    2
   75   2    5    9    4    6
   76   1    6   15
   77   3    6   12    9    7   32    4
   78   3    8   11   14    7   19    3
   79   2    8   13    7    8
   80   2   12    7    6    6
   81   2    8   15    4   15
   82   2    5   11   23    2
   83   1   13    5
   84   2    6   13    7   10
   85   2    7   13   11    6
   86   2    6    8   15    7
   87   2   13    6   12    6
   88   1    7   16
   89   3    6   14    6   12    6    7
   90   2    6    8    4    8
   91   3    5   10   12    3   29    2
   92   1   26    3
   93   3    7    8   18    3   19    2
   94   1   29    3
   95   2    6    6   20    4
   96   2    6   16   13    3
   97   1   11    6
   98   2    9    5   23    4
   99   2    8   13   12    6
  100   1    5    8
  101   3    7   15    8   11   13    4
  102   1    5   14
  103   2   13    6   10    4
  104   3   16    6   18    3   17    2
  105   1   21    3
  106   3    6   12    8   10   27    4
  107   1   14    8
  108   1   14    4
  109   1    7    9
  110   1    4   15
  111   1   10    7
  112   2    9    5   28    3
  113   1    8    6
  114   3   12    5    9    5   16    2
  115   1    6    9
  116   2   10    6   30    3
  117   3   14    5   16    4   20    3
  118   2   12    7   14    6
  119   3    7    9    7    9   15    7
  120   3    8    8    5    7   16    2
  121   3   11    7   13    6   14    5
  122   1   21    3
  123   2   30    2   13    2
  124   3    5   14    5   11   12    6
  125   2    8   14   25    2
  126   3    4   13   15    6   15    6
  127   1   22    4
  128   1   22    4
  129   2    5   12   15    5
  130   3    4   15    5   13   11    8
  131   1   12    8
  132   2    5    7    4    7
  133   3    7   14   13    7   13    4
  134   1   23    2
  135   1   12    7
  136   3    7   16    7   16   16    7
  137   2   15    7   19    3
  138   2   14    7    9    5
  139   1   10    6
  140   1    6   10
  141   3    6   13   15    4   30    2
  142   3    9    5   29    3   19    3
  143   2    8    8    6    8
  144   3    5   16    4   11   28    3
  145   2    5   11   26    3
  146   2    6   16   24    2
  147   2    4   13   17    3
  148   3    7   11   11    5   16    2
  149   3    5   10    4    9    6    7
  150   3    5    9   13    8   16    3
  151   1   11    7
  152   1    7    8
  153   1   16    6
  154   3    5   10    5    9   15    2
  155   1    5   11
  156   2   19    4   23    3
  157   2    4   10   12    2
  158   2    7    8   18    4
  159   2   23    3   27    2
  160   2    7    9   21    3
  161   1   11    7
  162   2    4   10   23    4
  163   1   18    4
  164   3    5   13    7    7   18    4
  165   1   32    4
  166   2    5    8   16    3
  167   1    5    8
  168   1    5    9
  169   1   10    7
  170   3    4   13   12    8   18    3
  171   3   14    5   18    4   23    3
  172   3    7   15    9    8   12    6
  173   3   12    6   20    3   18    3
  174   3   30    3   17    3   25    2
  175   2   11    7   15    5
  176   3   11    8   14    6   12    6
  177   1   10    5
  178   3   31    3   21    3   14    2
  179   3    6   11    6    7   13    4
  180   1   15    6
  181   1   16    3
  182   3    6   14    4    9   12    4
  183   2    6    9    8    8
  184   3    8    5   23    3   18    2
  185   2    7   11   15    5
  186   2   11    8   11    7
  187   1   30    2
  188   3    6    9    6    8   26    3
  189   1    6   11
  190   2    8   13   30    3
  191   2    6   11   31    4
  192   2   21    4   16    3
  193   2    8    8   31    4
  194   1   15    3
  195   1   10    4
  196   3   15    7   11    6   21    2
  197   1   17    3
  198   2    7   13   15    5
  199   2    5   10   14    5
  200   2    5   14   25    3
  201   2    4   10   29    4
  202   3    7   12   22    3   25    2
  203   1   14    7
  204   3    6   14    6   10   27    3
  205   2    6   13    8    8
  206   2    7   13    7    9
  207   2    5   16    9    4
  208   1   22    4
  209   1    5   12
  210   2   23    3   32    2
  211   1   10    6
  212   2    8   13   29    3
  213   1    5   11
  214   1    6   15
  215   3    7   15    5   15   13    7
  216   3    7    6   30    3   12    2
  217   3    7    8   16    6   24    2
  218   3   14    8   11    7   15    3
  219   3   12    7   27    3   20    2
  220   1    5   13
  221   2   28    4   22    4
  222   2    4    9   28    3
  223   3    7   14   16    7   15    5
  224   2   13    4   11    4
  225   2    8   13    5   13
  226   3    7    9    4    7    9    4
  227   3    6   16    5    8   32    3
  228   1    4   13
  229   1    5    7
  230   1   10    5
  231   2    7   11   12    4
  232   3    6   15   10    6   20    3
  233   2    9    8   14    3
  234   1   24    3
  235   3    5   15    6    7   15    2
  236   3   16    6   11    6   23    3
  237   2   13    6   16    3
  238   2   13    6   13    2
  239   3    8   16    9    8   21    3
  240   2   13    8   17    4
  241   3   22    4   23    3   19    3
  242   1    5   12
  243   1   23    2
  244   3   12    8   15    6   14    6
  245   1    5   16
  246   3   15    7   27    4   28    2
  247   2    8   14   14    8
  248   3    4   12   14    7   26    2
  249   3    6   12   15    6   13    6
  250   1    7   13
  251   1   16    3
  252   3   15    6   18    4   13    2
  253   1   24    3
  254   1   19    3
  255   1    7    9
